-439.0 3.0 6.0 9.0 10.0 2.0 0.0 9.0 6.0 8.0 4.0 10.0 7.0 2.0 6.0 7.0 0.0 3.0 9.0 9.0 6.0 10.0 5.0 9.0 7.0 6.0 1.0 0.0 1.0 10.0 10.0 3.0 9.0 7.0 6.0 7.0 6.0 9.0 1.0 3.0 5.0 8.0 7.0 5.0 0.0 0.0 8.0 8.0 5.0 6.0 8.0 7.0 0.0 5.0 6.0 1.0 5.0 4.0 10.0 6.0 8.0 3.0 3.0 9.0 0.0 0.0 6.0 6.0 10.0 1.0 7.0 7.0 5.0 8.0 5.0 9.0 5.0 1.0 9.0 1.0 6.0 
3.0 -407.0 1.0 9.0 2.0 2.0 2.0 2.0 10.0 8.0 1.0 9.0 1.0 9.0 4.0 10.0 8.0 5.0 6.0 3.0 3.0 7.0 1.0 7.0 7.0 3.0 9.0 5.0 7.0 6.0 8.0 10.0 7.0 9.0 2.0 2.0 4.0 10.0 8.0 9.0 7.0 5.0 4.0 7.0 8.0 8.0 4.0 9.0 10.0 5.0 7.0 1.0 7.0 5.0 7.0 1.0 1.0 6.0 8.0 10.0 2.0 3.0 3.0 5.0 3.0 10.0 1.0 2.0 8.0 3.0 7.0 7.0 7.0 1.0 6.0 0.0 0.0 0.0 0.0 0.0 0.0 
6.0 1.0 -353.0 1.0 1.0 8.0 1.0 2.0 2.0 3.0 5.0 1.0 9.0 0.0 1.0 6.0 5.0 5.0 10.0 7.0 0.0 8.0 8.0 5.0 9.0 1.0 10.0 5.0 9.0 5.0 10.0 2.0 7.0 2.0 0.0 2.0 10.0 2.0 5.0 3.0 6.0 6.0 7.0 1.0 0.0 0.0 1.0 2.0 0.0 1.0 5.0 9.0 4.0 2.0 5.0 1.0 1.0 4.0 5.0 6.0 2.0 3.0 7.0 8.0 3.0 4.0 1.0 7.0 4.0 4.0 8.0 8.0 6.0 7.0 2.0 6.0 7.0 2.0 7.0 7.0 7.0 
9.0 9.0 1.0 -432.0 7.0 8.0 7.0 8.0 9.0 0.0 10.0 8.0 9.0 2.0 5.0 7.0 4.0 7.0 3.0 4.0 10.0 1.0 6.0 4.0 1.0 5.0 2.0 7.0 1.0 0.0 1.0 10.0 7.0 5.0 10.0 1.0 0.0 2.0 3.0 8.0 10.0 0.0 3.0 7.0 10.0 8.0 1.0 0.0 10.0 6.0 1.0 0.0 7.0 7.0 9.0 7.0 1.0 10.0 5.0 2.0 8.0 7.0 10.0 9.0 0.0 7.0 6.0 8.0 4.0 7.0 4.0 2.0 9.0 5.0 3.0 5.0 8.0 9.0 7.0 2.0 7.0 
10.0 2.0 1.0 7.0 -374.0 7.0 8.0 6.0 7.0 7.0 0.0 8.0 3.0 7.0 0.0 9.0 7.0 10.0 7.0 10.0 7.0 1.0 1.0 5.0 8.0 8.0 9.0 2.0 3.0 3.0 7.0 7.0 4.0 7.0 1.0 1.0 2.0 9.0 4.0 4.0 8.0 4.0 3.0 3.0 1.0 9.0 2.0 10.0 4.0 3.0 0.0 9.0 0.0 10.0 5.0 1.0 8.0 0.0 2.0 7.0 2.0 3.0 2.0 3.0 3.0 3.0 0.0 5.0 10.0 5.0 1.0 10.0 5.0 9.0 2.0 3.0 1.0 3.0 2.0 1.0 3.0 
2.0 2.0 8.0 8.0 7.0 -369.0 8.0 9.0 1.0 5.0 5.0 3.0 8.0 10.0 4.0 8.0 4.0 4.0 2.0 1.0 2.0 6.0 7.0 2.0 5.0 0.0 3.0 1.0 10.0 0.0 6.0 5.0 0.0 6.0 4.0 9.0 10.0 9.0 6.0 9.0 7.0 4.0 7.0 2.0 3.0 2.0 8.0 7.0 4.0 0.0 3.0 3.0 1.0 2.0 1.0 0.0 1.0 3.0 10.0 2.0 9.0 2.0 0.0 4.0 7.0 3.0 10.0 9.0 1.0 6.0 7.0 1.0 8.0 3.0 4.0 4.0 1.0 6.0 8.0 3.0 4.0 
0.0 2.0 1.0 7.0 8.0 8.0 -389.0 9.0 0.0 7.0 1.0 2.0 3.0 10.0 7.0 8.0 5.0 8.0 7.0 8.0 5.0 9.0 8.0 2.0 9.0 6.0 7.0 1.0 2.0 6.0 9.0 5.0 0.0 7.0 9.0 4.0 5.0 10.0 1.0 1.0 8.0 0.0 6.0 5.0 1.0 1.0 6.0 10.0 3.0 1.0 2.0 3.0 2.0 10.0 7.0 1.0 5.0 10.0 6.0 0.0 2.0 7.0 10.0 3.0 8.0 1.0 10.0 5.0 0.0 0.0 0.0 8.0 4.0 0.0 2.0 9.0 7.0 5.0 1.0 6.0 7.0 
9.0 2.0 2.0 8.0 6.0 9.0 9.0 -401.0 3.0 8.0 0.0 5.0 3.0 9.0 9.0 1.0 2.0 7.0 4.0 7.0 8.0 0.0 2.0 1.0 8.0 2.0 7.0 1.0 5.0 8.0 10.0 4.0 7.0 5.0 3.0 0.0 10.0 0.0 2.0 5.0 7.0 4.0 2.0 8.0 4.0 10.0 4.0 3.0 0.0 3.0 6.0 10.0 4.0 10.0 1.0 3.0 7.0 6.0 7.0 5.0 9.0 6.0 8.0 5.0 2.0 4.0 5.0 9.0 5.0 1.0 0.0 9.0 2.0 5.0 5.0 10.0 2.0 9.0 4.0 4.0 2.0 
6.0 10.0 2.0 9.0 7.0 1.0 0.0 3.0 -388.0 8.0 0.0 6.0 2.0 8.0 2.0 6.0 1.0 10.0 3.0 8.0 10.0 2.0 4.0 9.0 6.0 0.0 7.0 1.0 10.0 4.0 5.0 6.0 7.0 0.0 9.0 8.0 6.0 4.0 6.0 7.0 5.0 1.0 6.0 2.0 6.0 5.0 0.0 10.0 5.0 9.0 10.0 3.0 9.0 1.0 5.0 2.0 5.0 9.0 0.0 9.0 2.0 9.0 7.0 7.0 2.0 4.0 0.0 10.0 2.0 6.0 2.0 3.0 5.0 8.0 1.0 5.0 7.0 0.0 1.0 2.0 0.0 
8.0 8.0 3.0 0.0 7.0 5.0 7.0 8.0 8.0 -385.0 9.0 7.0 7.0 0.0 4.0 4.0 8.0 9.0 3.0 6.0 9.0 0.0 0.0 2.0 6.0 7.0 7.0 7.0 1.0 10.0 5.0 4.0 7.0 0.0 7.0 2.0 0.0 7.0 9.0 1.0 8.0 2.0 4.0 5.0 3.0 1.0 8.0 9.0 8.0 2.0 5.0 9.0 0.0 5.0 7.0 10.0 4.0 0.0 1.0 7.0 6.0 0.0 3.0 4.0 8.0 5.0 8.0 4.0 1.0 8.0 4.0 3.0 5.0 1.0 2.0 3.0 10.0 1.0 3.0 4.0 2.0 
4.0 1.0 5.0 10.0 0.0 5.0 1.0 0.0 0.0 9.0 -436.0 10.0 8.0 8.0 3.0 3.0 4.0 8.0 6.0 2.0 1.0 6.0 4.0 9.0 8.0 6.0 10.0 7.0 0.0 5.0 5.0 3.0 8.0 4.0 7.0 3.0 8.0 5.0 0.0 2.0 8.0 2.0 10.0 9.0 2.0 6.0 9.0 4.0 10.0 9.0 2.0 5.0 3.0 3.0 8.0 0.0 3.0 9.0 7.0 7.0 7.0 9.0 8.0 6.0 4.0 6.0 7.0 5.0 9.0 7.0 3.0 10.0 6.0 4.0 1.0 4.0 7.0 9.0 6.0 4.0 10.0 
10.0 9.0 1.0 8.0 8.0 3.0 2.0 5.0 6.0 7.0 10.0 -423.0 5.0 8.0 2.0 10.0 4.0 6.0 5.0 6.0 5.0 4.0 6.0 6.0 7.0 0.0 5.0 4.0 0.0 8.0 1.0 6.0 9.0 2.0 8.0 6.0 4.0 1.0 7.0 7.0 10.0 2.0 0.0 3.0 0.0 7.0 6.0 8.0 6.0 6.0 9.0 7.0 4.0 7.0 0.0 3.0 6.0 4.0 2.0 4.0 5.0 2.0 6.0 9.0 2.0 5.0 8.0 0.0 3.0 4.0 9.0 6.0 7.0 7.0 0.0 8.0 5.0 10.0 8.0 9.0 5.0 
7.0 1.0 9.0 9.0 3.0 8.0 3.0 3.0 2.0 7.0 8.0 5.0 -385.0 9.0 7.0 1.0 9.0 2.0 5.0 4.0 9.0 4.0 1.0 5.0 1.0 0.0 7.0 2.0 6.0 5.0 5.0 4.0 4.0 3.0 3.0 5.0 10.0 9.0 7.0 2.0 7.0 3.0 8.0 5.0 4.0 9.0 1.0 3.0 5.0 2.0 2.0 4.0 7.0 10.0 10.0 4.0 1.0 3.0 4.0 0.0 3.0 4.0 1.0 4.0 8.0 5.0 0.0 0.0 6.0 5.0 10.0 9.0 8.0 1.0 3.0 8.0 2.0 0.0 8.0 9.0 5.0 
2.0 9.0 0.0 2.0 7.0 10.0 10.0 9.0 8.0 0.0 8.0 8.0 9.0 -420.0 5.0 1.0 1.0 5.0 6.0 0.0 7.0 6.0 9.0 6.0 0.0 4.0 5.0 0.0 3.0 5.0 9.0 10.0 6.0 5.0 6.0 1.0 6.0 4.0 6.0 10.0 0.0 10.0 1.0 4.0 7.0 9.0 0.0 2.0 3.0 5.0 10.0 10.0 8.0 10.0 10.0 5.0 2.0 3.0 2.0 5.0 3.0 4.0 4.0 7.0 10.0 4.0 0.0 10.0 9.0 7.0 0.0 3.0 8.0 5.0 9.0 5.0 3.0 7.0 3.0 3.0 2.0 
6.0 4.0 1.0 5.0 0.0 4.0 7.0 9.0 2.0 4.0 3.0 2.0 7.0 5.0 -385.0 7.0 1.0 8.0 3.0 5.0 1.0 7.0 6.0 4.0 6.0 6.0 6.0 8.0 1.0 4.0 9.0 4.0 5.0 1.0 10.0 4.0 6.0 6.0 4.0 4.0 6.0 5.0 7.0 3.0 9.0 9.0 6.0 1.0 3.0 9.0 4.0 7.0 2.0 4.0 4.0 7.0 9.0 8.0 1.0 4.0 1.0 8.0 5.0 6.0 7.0 6.0 5.0 1.0 0.0 10.0 10.0 2.0 9.0 8.0 6.0 1.0 3.0 0.0 2.0 0.0 2.0 
7.0 10.0 6.0 7.0 9.0 8.0 8.0 1.0 6.0 4.0 3.0 10.0 1.0 1.0 7.0 -396.0 10.0 7.0 7.0 1.0 7.0 8.0 3.0 2.0 3.0 2.0 9.0 8.0 3.0 5.0 1.0 5.0 9.0 7.0 8.0 0.0 9.0 5.0 8.0 8.0 3.0 2.0 9.0 1.0 1.0 1.0 2.0 4.0 6.0 7.0 9.0 1.0 10.0 7.0 3.0 4.0 2.0 6.0 5.0 3.0 1.0 0.0 7.0 3.0 1.0 1.0 5.0 9.0 7.0 0.0 0.0 5.0 8.0 0.0 0.0 7.0 3.0 4.0 10.0 10.0 6.0 
0.0 8.0 5.0 4.0 7.0 4.0 5.0 2.0 1.0 8.0 4.0 4.0 9.0 1.0 1.0 10.0 -387.0 0.0 6.0 5.0 6.0 1.0 9.0 7.0 2.0 6.0 2.0 7.0 8.0 9.0 6.0 2.0 2.0 9.0 1.0 4.0 4.0 5.0 8.0 6.0 1.0 10.0 6.0 0.0 4.0 6.0 2.0 1.0 9.0 8.0 8.0 10.0 5.0 5.0 7.0 5.0 5.0 0.0 3.0 10.0 0.0 3.0 5.0 10.0 6.0 3.0 9.0 2.0 6.0 3.0 10.0 2.0 2.0 1.0 2.0 5.0 0.0 3.0 3.0 10.0 9.0 
3.0 5.0 5.0 7.0 10.0 4.0 8.0 7.0 10.0 9.0 8.0 6.0 2.0 5.0 8.0 7.0 0.0 -413.0 3.0 8.0 9.0 7.0 4.0 2.0 5.0 4.0 0.0 1.0 2.0 2.0 0.0 4.0 0.0 8.0 4.0 7.0 4.0 6.0 6.0 1.0 2.0 2.0 6.0 2.0 4.0 5.0 2.0 0.0 7.0 4.0 10.0 8.0 6.0 5.0 1.0 0.0 8.0 9.0 1.0 6.0 0.0 8.0 8.0 3.0 6.0 10.0 5.0 6.0 10.0 9.0 8.0 4.0 7.0 7.0 3.0 10.0 1.0 10.0 6.0 5.0 8.0 
9.0 6.0 10.0 3.0 7.0 2.0 7.0 4.0 3.0 3.0 6.0 5.0 5.0 6.0 3.0 7.0 6.0 3.0 -457.0 6.0 2.0 5.0 8.0 10.0 1.0 9.0 4.0 2.0 1.0 8.0 10.0 5.0 2.0 4.0 7.0 6.0 2.0 8.0 7.0 5.0 10.0 8.0 2.0 7.0 5.0 7.0 0.0 3.0 3.0 5.0 4.0 9.0 6.0 10.0 6.0 8.0 8.0 10.0 9.0 7.0 10.0 1.0 9.0 6.0 0.0 8.0 6.0 6.0 4.0 10.0 6.0 1.0 9.0 4.0 5.0 9.0 2.0 9.0 0.0 10.0 8.0 
9.0 3.0 7.0 4.0 10.0 1.0 8.0 7.0 8.0 6.0 2.0 6.0 4.0 0.0 5.0 1.0 5.0 8.0 6.0 -454.0 1.0 9.0 2.0 2.0 7.0 2.0 7.0 6.0 5.0 6.0 4.0 4.0 7.0 3.0 10.0 2.0 2.0 9.0 6.0 4.0 10.0 10.0 5.0 1.0 1.0 8.0 4.0 9.0 10.0 2.0 4.0 2.0 9.0 4.0 3.0 10.0 7.0 10.0 7.0 8.0 4.0 9.0 2.0 5.0 9.0 8.0 7.0 9.0 9.0 5.0 3.0 10.0 0.0 7.0 9.0 6.0 8.0 3.0 5.0 7.0 7.0 
6.0 3.0 0.0 10.0 7.0 2.0 5.0 8.0 10.0 9.0 1.0 5.0 9.0 7.0 1.0 7.0 6.0 9.0 2.0 1.0 -429.0 10.0 2.0 10.0 3.0 1.0 7.0 7.0 6.0 10.0 8.0 0.0 4.0 1.0 6.0 10.0 8.0 1.0 7.0 10.0 2.0 4.0 3.0 7.0 10.0 9.0 9.0 10.0 5.0 7.0 10.0 6.0 5.0 4.0 7.0 3.0 7.0 9.0 1.0 0.0 4.0 5.0 9.0 3.0 4.0 6.0 8.0 4.0 0.0 5.0 4.0 5.0 6.0 3.0 0.0 3.0 3.0 1.0 6.0 3.0 10.0 
10.0 7.0 8.0 1.0 1.0 6.0 9.0 0.0 2.0 0.0 6.0 4.0 4.0 6.0 7.0 8.0 1.0 7.0 5.0 9.0 10.0 -367.0 7.0 1.0 5.0 5.0 0.0 7.0 0.0 3.0 5.0 4.0 5.0 5.0 0.0 10.0 9.0 9.0 2.0 2.0 0.0 9.0 0.0 4.0 5.0 0.0 2.0 5.0 9.0 6.0 4.0 2.0 5.0 1.0 10.0 3.0 2.0 2.0 9.0 8.0 2.0 10.0 4.0 2.0 2.0 6.0 7.0 3.0 1.0 2.0 9.0 1.0 5.0 0.0 10.0 0.0 9.0 2.0 1.0 8.0 7.0 
5.0 1.0 8.0 6.0 1.0 7.0 8.0 2.0 4.0 0.0 4.0 6.0 1.0 9.0 6.0 3.0 9.0 4.0 8.0 2.0 2.0 7.0 -391.0 6.0 5.0 3.0 2.0 9.0 5.0 9.0 7.0 5.0 3.0 7.0 8.0 5.0 7.0 2.0 8.0 4.0 10.0 0.0 2.0 2.0 6.0 2.0 3.0 3.0 0.0 3.0 9.0 2.0 6.0 7.0 2.0 2.0 9.0 6.0 0.0 10.0 6.0 2.0 9.0 9.0 0.0 9.0 0.0 4.0 7.0 2.0 6.0 2.0 10.0 3.0 8.0 10.0 2.0 5.0 6.0 4.0 5.0 
9.0 7.0 5.0 4.0 5.0 2.0 2.0 1.0 9.0 2.0 9.0 6.0 5.0 6.0 4.0 2.0 7.0 2.0 10.0 2.0 10.0 1.0 6.0 -378.0 1.0 8.0 7.0 0.0 8.0 10.0 0.0 7.0 9.0 8.0 5.0 8.0 10.0 8.0 7.0 7.0 10.0 7.0 2.0 9.0 3.0 1.0 1.0 1.0 2.0 2.0 3.0 9.0 2.0 1.0 5.0 5.0 5.0 7.0 9.0 5.0 0.0 7.0 5.0 0.0 8.0 8.0 5.0 6.0 4.0 0.0 7.0 1.0 5.0 0.0 6.0 0.0 2.0 1.0 0.0 2.0 3.0 
7.0 7.0 9.0 1.0 8.0 5.0 9.0 8.0 6.0 6.0 8.0 7.0 1.0 0.0 6.0 3.0 2.0 5.0 1.0 7.0 3.0 5.0 5.0 1.0 -413.0 7.0 0.0 6.0 2.0 5.0 3.0 8.0 2.0 9.0 8.0 4.0 6.0 9.0 7.0 5.0 3.0 6.0 8.0 10.0 4.0 1.0 7.0 7.0 9.0 10.0 8.0 0.0 3.0 6.0 0.0 7.0 1.0 2.0 0.0 1.0 7.0 10.0 5.0 0.0 8.0 3.0 6.0 3.0 9.0 1.0 1.0 7.0 10.0 8.0 7.0 0.0 2.0 8.0 10.0 8.0 6.0 
6.0 3.0 1.0 5.0 8.0 0.0 6.0 2.0 0.0 7.0 6.0 0.0 0.0 4.0 6.0 2.0 6.0 4.0 9.0 2.0 1.0 5.0 3.0 8.0 7.0 -406.0 5.0 10.0 5.0 8.0 9.0 10.0 2.0 2.0 9.0 0.0 8.0 10.0 7.0 8.0 0.0 8.0 10.0 5.0 9.0 0.0 9.0 5.0 0.0 9.0 5.0 3.0 2.0 1.0 0.0 6.0 10.0 1.0 10.0 6.0 6.0 10.0 9.0 7.0 9.0 0.0 8.0 6.0 0.0 4.0 10.0 0.0 7.0 1.0 2.0 8.0 4.0 4.0 10.0 8.0 0.0 
1.0 9.0 10.0 2.0 9.0 3.0 7.0 7.0 7.0 7.0 10.0 5.0 7.0 5.0 6.0 9.0 2.0 0.0 4.0 7.0 7.0 0.0 2.0 7.0 0.0 5.0 -444.0 2.0 10.0 1.0 5.0 0.0 4.0 10.0 0.0 8.0 6.0 9.0 7.0 2.0 0.0 9.0 10.0 7.0 3.0 6.0 6.0 9.0 4.0 2.0 9.0 9.0 0.0 0.0 5.0 5.0 9.0 9.0 9.0 8.0 2.0 9.0 2.0 7.0 9.0 9.0 0.0 6.0 4.0 10.0 2.0 10.0 7.0 10.0 0.0 0.0 6.0 9.0 4.0 8.0 9.0 
0.0 5.0 5.0 7.0 2.0 1.0 1.0 1.0 1.0 7.0 7.0 4.0 2.0 0.0 8.0 8.0 7.0 1.0 2.0 6.0 7.0 7.0 9.0 0.0 6.0 10.0 2.0 -362.0 5.0 4.0 1.0 3.0 4.0 5.0 7.0 8.0 10.0 9.0 0.0 1.0 6.0 5.0 9.0 1.0 1.0 2.0 10.0 3.0 10.0 2.0 1.0 4.0 9.0 9.0 7.0 7.0 8.0 5.0 10.0 8.0 8.0 0.0 3.0 0.0 4.0 0.0 4.0 4.0 1.0 4.0 2.0 6.0 7.0 1.0 1.0 1.0 6.0 3.0 10.0 6.0 1.0 
1.0 7.0 9.0 1.0 3.0 10.0 2.0 5.0 10.0 1.0 0.0 0.0 6.0 3.0 1.0 3.0 8.0 2.0 1.0 5.0 6.0 0.0 5.0 8.0 2.0 5.0 10.0 5.0 -391.0 5.0 5.0 0.0 9.0 2.0 1.0 10.0 5.0 9.0 8.0 10.0 4.0 10.0 1.0 5.0 4.0 8.0 9.0 5.0 1.0 6.0 6.0 3.0 10.0 4.0 9.0 2.0 2.0 6.0 5.0 6.0 8.0 0.0 8.0 1.0 6.0 10.0 6.0 5.0 0.0 8.0 4.0 1.0 10.0 6.0 3.0 0.0 5.0 0.0 10.0 1.0 10.0 
10.0 6.0 5.0 0.0 3.0 0.0 6.0 8.0 4.0 10.0 5.0 8.0 5.0 5.0 4.0 5.0 9.0 2.0 8.0 6.0 10.0 3.0 9.0 10.0 5.0 8.0 1.0 4.0 5.0 -407.0 1.0 6.0 9.0 0.0 6.0 2.0 9.0 3.0 10.0 8.0 6.0 3.0 3.0 0.0 7.0 3.0 7.0 3.0 2.0 3.0 1.0 8.0 8.0 10.0 4.0 1.0 8.0 10.0 4.0 7.0 4.0 3.0 9.0 9.0 0.0 1.0 7.0 4.0 9.0 2.0 4.0 3.0 1.0 4.0 0.0 9.0 10.0 2.0 2.0 5.0 3.0 
10.0 8.0 10.0 1.0 7.0 6.0 9.0 10.0 5.0 5.0 5.0 1.0 5.0 9.0 9.0 1.0 6.0 0.0 10.0 4.0 8.0 5.0 7.0 0.0 3.0 9.0 5.0 1.0 5.0 1.0 -433.0 5.0 7.0 0.0 0.0 9.0 6.0 2.0 9.0 10.0 8.0 2.0 10.0 7.0 5.0 4.0 2.0 3.0 2.0 8.0 2.0 5.0 6.0 4.0 10.0 8.0 6.0 4.0 0.0 6.0 3.0 3.0 10.0 8.0 10.0 3.0 7.0 10.0 8.0 10.0 6.0 0.0 1.0 1.0 9.0 7.0 7.0 5.0 6.0 3.0 1.0 
3.0 10.0 2.0 10.0 7.0 5.0 5.0 4.0 6.0 4.0 3.0 6.0 4.0 10.0 4.0 5.0 2.0 4.0 5.0 4.0 0.0 4.0 5.0 7.0 8.0 10.0 0.0 3.0 0.0 6.0 5.0 -408.0 8.0 6.0 4.0 5.0 5.0 3.0 4.0 6.0 8.0 3.0 3.0 3.0 7.0 8.0 8.0 4.0 5.0 8.0 2.0 10.0 6.0 10.0 9.0 5.0 5.0 1.0 7.0 0.0 9.0 1.0 7.0 4.0 7.0 7.0 1.0 3.0 0.0 9.0 4.0 5.0 7.0 10.0 10.0 3.0 1.0 0.0 10.0 1.0 5.0 
9.0 7.0 7.0 7.0 4.0 0.0 0.0 7.0 7.0 7.0 8.0 9.0 4.0 6.0 5.0 9.0 2.0 0.0 2.0 7.0 4.0 5.0 3.0 9.0 2.0 2.0 4.0 4.0 9.0 9.0 7.0 8.0 -401.0 7.0 9.0 0.0 5.0 7.0 4.0 6.0 3.0 4.0 0.0 4.0 8.0 3.0 1.0 3.0 10.0 3.0 10.0 1.0 1.0 1.0 8.0 10.0 10.0 5.0 0.0 8.0 0.0 2.0 0.0 5.0 5.0 6.0 0.0 0.0 8.0 9.0 4.0 7.0 5.0 0.0 4.0 5.0 9.0 5.0 10.0 8.0 5.0 
7.0 9.0 2.0 5.0 7.0 6.0 7.0 5.0 0.0 0.0 4.0 2.0 3.0 5.0 1.0 7.0 9.0 8.0 4.0 3.0 1.0 5.0 7.0 8.0 9.0 2.0 10.0 5.0 2.0 0.0 0.0 6.0 7.0 -384.0 1.0 10.0 6.0 3.0 2.0 10.0 4.0 8.0 6.0 1.0 1.0 9.0 3.0 7.0 1.0 1.0 1.0 1.0 8.0 7.0 9.0 7.0 1.0 7.0 5.0 0.0 0.0 8.0 5.0 0.0 3.0 5.0 8.0 4.0 9.0 3.0 7.0 9.0 7.0 6.0 9.0 3.0 0.0 4.0 8.0 10.0 1.0 
6.0 2.0 0.0 10.0 1.0 4.0 9.0 3.0 9.0 7.0 7.0 8.0 3.0 6.0 10.0 8.0 1.0 4.0 7.0 10.0 6.0 0.0 8.0 5.0 8.0 9.0 0.0 7.0 1.0 6.0 0.0 4.0 9.0 1.0 -378.0 2.0 6.0 9.0 7.0 1.0 1.0 1.0 0.0 0.0 5.0 8.0 3.0 0.0 0.0 1.0 0.0 4.0 1.0 9.0 8.0 9.0 7.0 10.0 4.0 3.0 5.0 2.0 4.0 1.0 2.0 10.0 0.0 10.0 4.0 2.0 6.0 0.0 8.0 9.0 8.0 8.0 0.0 1.0 3.0 9.0 8.0 
7.0 2.0 2.0 1.0 1.0 9.0 4.0 0.0 8.0 2.0 3.0 6.0 5.0 1.0 4.0 0.0 4.0 7.0 6.0 2.0 10.0 10.0 5.0 8.0 4.0 0.0 8.0 8.0 10.0 2.0 9.0 5.0 0.0 10.0 2.0 -407.0 1.0 10.0 6.0 9.0 1.0 9.0 9.0 10.0 1.0 2.0 6.0 5.0 7.0 0.0 6.0 3.0 8.0 10.0 3.0 3.0 0.0 8.0 1.0 8.0 10.0 7.0 8.0 1.0 5.0 9.0 4.0 3.0 3.0 10.0 4.0 10.0 7.0 10.0 0.0 6.0 5.0 3.0 1.0 7.0 3.0 
6.0 4.0 10.0 0.0 2.0 10.0 5.0 10.0 6.0 0.0 8.0 4.0 10.0 6.0 6.0 9.0 4.0 4.0 2.0 2.0 8.0 9.0 7.0 10.0 6.0 8.0 6.0 10.0 5.0 9.0 6.0 5.0 5.0 6.0 6.0 1.0 -438.0 9.0 0.0 9.0 9.0 0.0 4.0 2.0 0.0 3.0 9.0 3.0 7.0 8.0 6.0 0.0 6.0 8.0 8.0 1.0 5.0 4.0 1.0 8.0 9.0 3.0 8.0 0.0 7.0 10.0 5.0 2.0 5.0 0.0 10.0 8.0 5.0 3.0 10.0 9.0 5.0 9.0 0.0 4.0 1.0 
9.0 10.0 2.0 2.0 9.0 9.0 10.0 0.0 4.0 7.0 5.0 1.0 9.0 4.0 6.0 5.0 5.0 6.0 8.0 9.0 1.0 9.0 2.0 8.0 9.0 10.0 9.0 9.0 9.0 3.0 2.0 3.0 7.0 3.0 9.0 10.0 9.0 -463.0 2.0 8.0 8.0 7.0 3.0 10.0 10.0 7.0 4.0 5.0 3.0 8.0 1.0 10.0 5.0 9.0 8.0 10.0 5.0 10.0 3.0 5.0 0.0 2.0 2.0 8.0 3.0 1.0 2.0 8.0 3.0 9.0 2.0 7.0 3.0 1.0 9.0 4.0 3.0 4.0 9.0 4.0 6.0 
1.0 8.0 5.0 3.0 4.0 6.0 1.0 2.0 6.0 9.0 0.0 7.0 7.0 6.0 4.0 8.0 8.0 6.0 7.0 6.0 7.0 2.0 8.0 7.0 7.0 7.0 7.0 0.0 8.0 10.0 9.0 4.0 4.0 2.0 7.0 6.0 0.0 2.0 -444.0 9.0 9.0 5.0 4.0 4.0 9.0 3.0 4.0 1.0 8.0 7.0 1.0 7.0 3.0 5.0 10.0 6.0 4.0 4.0 9.0 1.0 10.0 5.0 4.0 2.0 10.0 5.0 0.0 6.0 10.0 9.0 0.0 0.0 5.0 5.0 9.0 10.0 8.0 10.0 4.0 9.0 9.0 
3.0 9.0 3.0 8.0 4.0 9.0 1.0 5.0 7.0 1.0 2.0 7.0 2.0 10.0 4.0 8.0 6.0 1.0 5.0 4.0 10.0 2.0 4.0 7.0 5.0 8.0 2.0 1.0 10.0 8.0 10.0 6.0 6.0 10.0 1.0 9.0 9.0 8.0 9.0 -452.0 6.0 8.0 1.0 3.0 0.0 1.0 1.0 10.0 2.0 10.0 5.0 4.0 5.0 8.0 6.0 9.0 8.0 3.0 2.0 8.0 5.0 9.0 8.0 1.0 10.0 10.0 10.0 6.0 8.0 3.0 2.0 5.0 7.0 4.0 5.0 7.0 8.0 8.0 10.0 0.0 2.0 
5.0 7.0 6.0 10.0 8.0 7.0 8.0 7.0 5.0 8.0 8.0 10.0 7.0 0.0 6.0 3.0 1.0 2.0 10.0 10.0 2.0 0.0 10.0 10.0 3.0 0.0 0.0 6.0 4.0 6.0 8.0 8.0 3.0 4.0 1.0 1.0 9.0 8.0 9.0 6.0 -452.0 7.0 10.0 6.0 10.0 2.0 10.0 7.0 8.0 1.0 8.0 1.0 6.0 10.0 1.0 0.0 8.0 4.0 10.0 3.0 6.0 1.0 10.0 1.0 8.0 10.0 3.0 6.0 10.0 1.0 2.0 4.0 9.0 3.0 6.0 10.0 2.0 7.0 2.0 6.0 7.0 
8.0 5.0 6.0 0.0 4.0 4.0 0.0 4.0 1.0 2.0 2.0 2.0 3.0 10.0 5.0 2.0 10.0 2.0 8.0 10.0 4.0 9.0 0.0 7.0 6.0 8.0 9.0 5.0 10.0 3.0 2.0 3.0 4.0 8.0 1.0 9.0 0.0 7.0 5.0 8.0 7.0 -376.0 8.0 1.0 1.0 1.0 2.0 3.0 0.0 1.0 8.0 4.0 7.0 3.0 0.0 5.0 7.0 9.0 1.0 0.0 1.0 7.0 6.0 10.0 0.0 9.0 9.0 9.0 9.0 1.0 2.0 4.0 4.0 9.0 6.0 1.0 10.0 3.0 0.0 4.0 8.0 
7.0 4.0 7.0 3.0 3.0 7.0 6.0 2.0 6.0 4.0 10.0 0.0 8.0 1.0 7.0 9.0 6.0 6.0 2.0 5.0 3.0 0.0 2.0 2.0 8.0 10.0 10.0 9.0 1.0 3.0 10.0 3.0 0.0 6.0 0.0 9.0 4.0 3.0 4.0 1.0 10.0 8.0 -390.0 7.0 5.0 6.0 6.0 8.0 7.0 2.0 1.0 10.0 0.0 10.0 5.0 1.0 1.0 10.0 3.0 8.0 3.0 1.0 10.0 6.0 7.0 7.0 1.0 4.0 1.0 4.0 2.0 10.0 4.0 9.0 8.0 2.0 3.0 0.0 3.0 6.0 0.0 
5.0 7.0 1.0 7.0 3.0 2.0 5.0 8.0 2.0 5.0 9.0 3.0 5.0 4.0 3.0 1.0 0.0 2.0 7.0 1.0 7.0 4.0 2.0 9.0 10.0 5.0 7.0 1.0 5.0 0.0 7.0 3.0 4.0 1.0 0.0 10.0 2.0 10.0 4.0 3.0 6.0 1.0 7.0 -392.0 2.0 0.0 9.0 3.0 10.0 7.0 9.0 0.0 7.0 8.0 4.0 8.0 8.0 0.0 10.0 5.0 2.0 7.0 9.0 10.0 0.0 2.0 10.0 3.0 6.0 3.0 0.0 10.0 0.0 8.0 8.0 9.0 3.0 1.0 7.0 10.0 6.0 
0.0 8.0 0.0 10.0 1.0 3.0 1.0 4.0 6.0 3.0 2.0 0.0 4.0 7.0 9.0 1.0 4.0 4.0 5.0 1.0 10.0 5.0 6.0 3.0 4.0 9.0 3.0 1.0 4.0 7.0 5.0 7.0 8.0 1.0 5.0 1.0 0.0 10.0 9.0 0.0 10.0 1.0 5.0 2.0 -335.0 3.0 0.0 6.0 3.0 2.0 0.0 8.0 1.0 1.0 8.0 8.0 1.0 7.0 6.0 2.0 0.0 2.0 9.0 7.0 7.0 3.0 8.0 5.0 0.0 10.0 1.0 7.0 3.0 4.0 5.0 2.0 8.0 1.0 5.0 3.0 0.0 
0.0 8.0 0.0 8.0 9.0 2.0 1.0 10.0 5.0 1.0 6.0 7.0 9.0 9.0 9.0 1.0 6.0 5.0 7.0 8.0 9.0 0.0 2.0 1.0 1.0 0.0 6.0 2.0 8.0 3.0 4.0 8.0 3.0 9.0 8.0 2.0 3.0 7.0 3.0 1.0 2.0 1.0 6.0 0.0 3.0 -358.0 1.0 1.0 3.0 1.0 1.0 7.0 10.0 4.0 9.0 3.0 0.0 6.0 2.0 5.0 5.0 0.0 3.0 3.0 2.0 10.0 10.0 7.0 8.0 10.0 8.0 4.0 9.0 1.0 4.0 0.0 2.0 3.0 2.0 1.0 10.0 
8.0 4.0 1.0 1.0 2.0 8.0 6.0 4.0 0.0 8.0 9.0 6.0 1.0 0.0 6.0 2.0 2.0 2.0 0.0 4.0 9.0 2.0 3.0 1.0 7.0 9.0 6.0 10.0 9.0 7.0 2.0 8.0 1.0 3.0 3.0 6.0 9.0 4.0 4.0 1.0 10.0 2.0 6.0 9.0 0.0 1.0 -372.0 0.0 2.0 6.0 4.0 5.0 3.0 4.0 3.0 4.0 1.0 6.0 6.0 1.0 9.0 10.0 10.0 7.0 5.0 5.0 1.0 4.0 9.0 5.0 4.0 9.0 3.0 5.0 10.0 5.0 7.0 0.0 6.0 2.0 5.0 
8.0 9.0 2.0 0.0 10.0 7.0 10.0 3.0 10.0 9.0 4.0 8.0 3.0 2.0 1.0 4.0 1.0 0.0 3.0 9.0 10.0 5.0 3.0 1.0 7.0 5.0 9.0 3.0 5.0 3.0 3.0 4.0 3.0 7.0 0.0 5.0 3.0 5.0 1.0 10.0 7.0 3.0 8.0 3.0 6.0 1.0 0.0 -365.0 4.0 4.0 1.0 3.0 1.0 6.0 1.0 10.0 1.0 3.0 6.0 1.0 6.0 8.0 7.0 3.0 7.0 5.0 1.0 4.0 7.0 9.0 10.0 0.0 1.0 5.0 3.0 1.0 3.0 9.0 3.0 5.0 4.0 
5.0 10.0 0.0 10.0 4.0 4.0 3.0 0.0 5.0 8.0 10.0 6.0 5.0 3.0 3.0 6.0 9.0 7.0 3.0 10.0 5.0 9.0 0.0 2.0 9.0 0.0 4.0 10.0 1.0 2.0 2.0 5.0 10.0 1.0 0.0 7.0 7.0 3.0 8.0 2.0 8.0 0.0 7.0 10.0 3.0 3.0 2.0 4.0 -384.0 6.0 6.0 9.0 0.0 6.0 0.0 8.0 10.0 3.0 5.0 3.0 4.0 4.0 8.0 1.0 5.0 6.0 7.0 0.0 5.0 8.0 4.0 5.0 1.0 8.0 0.0 0.0 6.0 7.0 2.0 3.0 9.0 
6.0 5.0 1.0 6.0 3.0 0.0 1.0 3.0 9.0 2.0 9.0 6.0 2.0 5.0 9.0 7.0 8.0 4.0 5.0 2.0 7.0 6.0 3.0 2.0 10.0 9.0 2.0 2.0 6.0 3.0 8.0 8.0 3.0 1.0 1.0 0.0 8.0 8.0 7.0 10.0 1.0 1.0 2.0 7.0 2.0 1.0 6.0 4.0 6.0 -375.0 8.0 8.0 1.0 9.0 5.0 1.0 8.0 3.0 0.0 2.0 9.0 6.0 9.0 5.0 5.0 0.0 10.0 3.0 6.0 2.0 4.0 5.0 6.0 8.0 4.0 5.0 4.0 1.0 5.0 4.0 2.0 
8.0 7.0 5.0 1.0 0.0 3.0 2.0 6.0 10.0 5.0 2.0 9.0 2.0 10.0 4.0 9.0 8.0 10.0 4.0 4.0 10.0 4.0 9.0 3.0 8.0 5.0 9.0 1.0 6.0 1.0 2.0 2.0 10.0 1.0 0.0 6.0 6.0 1.0 1.0 5.0 8.0 8.0 1.0 9.0 0.0 1.0 4.0 1.0 6.0 8.0 -397.0 10.0 8.0 2.0 6.0 0.0 5.0 6.0 7.0 9.0 8.0 3.0 4.0 10.0 3.0 10.0 5.0 5.0 5.0 3.0 0.0 2.0 4.0 4.0 3.0 8.0 3.0 10.0 0.0 9.0 0.0 
7.0 1.0 9.0 0.0 9.0 3.0 3.0 10.0 3.0 9.0 5.0 7.0 4.0 10.0 7.0 1.0 10.0 8.0 9.0 2.0 6.0 2.0 2.0 9.0 0.0 3.0 9.0 4.0 3.0 8.0 5.0 10.0 1.0 1.0 4.0 3.0 0.0 10.0 7.0 4.0 1.0 4.0 10.0 0.0 8.0 7.0 5.0 3.0 9.0 8.0 10.0 -413.0 3.0 5.0 9.0 7.0 10.0 1.0 1.0 6.0 0.0 3.0 8.0 2.0 2.0 3.0 9.0 10.0 5.0 2.0 10.0 6.0 1.0 6.0 6.0 0.0 2.0 9.0 7.0 7.0 0.0 
0.0 7.0 4.0 7.0 0.0 1.0 2.0 4.0 9.0 0.0 3.0 4.0 7.0 8.0 2.0 10.0 5.0 6.0 6.0 9.0 5.0 5.0 6.0 2.0 3.0 2.0 0.0 9.0 10.0 8.0 6.0 6.0 1.0 8.0 1.0 8.0 6.0 5.0 3.0 5.0 6.0 7.0 0.0 7.0 1.0 10.0 3.0 1.0 0.0 1.0 8.0 3.0 -384.0 0.0 0.0 0.0 5.0 6.0 9.0 1.0 1.0 9.0 0.0 5.0 6.0 2.0 10.0 1.0 8.0 10.0 8.0 0.0 10.0 7.0 7.0 9.0 3.0 9.0 9.0 8.0 1.0 
5.0 5.0 2.0 7.0 10.0 2.0 10.0 10.0 1.0 5.0 3.0 7.0 10.0 10.0 4.0 7.0 5.0 5.0 10.0 4.0 4.0 1.0 7.0 1.0 6.0 1.0 0.0 9.0 4.0 10.0 4.0 10.0 1.0 7.0 9.0 10.0 8.0 9.0 5.0 8.0 10.0 3.0 10.0 8.0 1.0 4.0 4.0 6.0 6.0 9.0 2.0 5.0 0.0 -434.0 6.0 7.0 3.0 8.0 0.0 5.0 2.0 6.0 5.0 2.0 0.0 9.0 9.0 4.0 9.0 7.0 2.0 10.0 5.0 3.0 7.0 9.0 8.0 0.0 1.0 2.0 1.0 
6.0 7.0 5.0 9.0 5.0 1.0 7.0 1.0 5.0 7.0 8.0 0.0 10.0 10.0 4.0 3.0 7.0 1.0 6.0 3.0 7.0 10.0 2.0 5.0 0.0 0.0 5.0 7.0 9.0 4.0 10.0 9.0 8.0 9.0 8.0 3.0 8.0 8.0 10.0 6.0 1.0 0.0 5.0 4.0 8.0 9.0 3.0 1.0 0.0 5.0 6.0 9.0 0.0 6.0 -428.0 0.0 5.0 9.0 8.0 8.0 2.0 8.0 7.0 3.0 6.0 4.0 10.0 5.0 1.0 2.0 8.0 8.0 3.0 9.0 6.0 2.0 8.0 5.0 0.0 8.0 3.0 
1.0 1.0 1.0 7.0 1.0 0.0 1.0 3.0 2.0 10.0 0.0 3.0 4.0 5.0 7.0 4.0 5.0 0.0 8.0 10.0 3.0 3.0 2.0 5.0 7.0 6.0 5.0 7.0 2.0 1.0 8.0 5.0 10.0 7.0 9.0 3.0 1.0 10.0 6.0 9.0 0.0 5.0 1.0 8.0 8.0 3.0 4.0 10.0 8.0 1.0 0.0 7.0 0.0 7.0 0.0 -364.0 4.0 1.0 8.0 3.0 3.0 7.0 10.0 6.0 4.0 1.0 6.0 9.0 4.0 5.0 3.0 9.0 1.0 3.0 3.0 4.0 1.0 6.0 5.0 8.0 6.0 
5.0 1.0 1.0 1.0 8.0 1.0 5.0 7.0 5.0 4.0 3.0 6.0 1.0 2.0 9.0 2.0 5.0 8.0 8.0 7.0 7.0 2.0 9.0 5.0 1.0 10.0 9.0 8.0 2.0 8.0 6.0 5.0 10.0 1.0 7.0 0.0 5.0 5.0 4.0 8.0 8.0 7.0 1.0 8.0 1.0 0.0 1.0 1.0 10.0 8.0 5.0 10.0 5.0 3.0 5.0 4.0 -387.0 0.0 9.0 6.0 2.0 0.0 5.0 3.0 8.0 4.0 5.0 4.0 3.0 4.0 4.0 10.0 5.0 9.0 0.0 1.0 4.0 5.0 7.0 10.0 1.0 
4.0 6.0 4.0 10.0 0.0 3.0 10.0 6.0 9.0 0.0 9.0 4.0 3.0 3.0 8.0 6.0 0.0 9.0 10.0 10.0 9.0 2.0 6.0 7.0 2.0 1.0 9.0 5.0 6.0 10.0 4.0 1.0 5.0 7.0 10.0 8.0 4.0 10.0 4.0 3.0 4.0 9.0 10.0 0.0 7.0 6.0 6.0 3.0 3.0 3.0 6.0 1.0 6.0 8.0 9.0 1.0 0.0 -447.0 0.0 7.0 10.0 9.0 7.0 8.0 10.0 6.0 5.0 4.0 6.0 7.0 3.0 7.0 0.0 9.0 5.0 0.0 8.0 8.0 8.0 2.0 9.0 
10.0 8.0 5.0 5.0 2.0 10.0 6.0 7.0 0.0 1.0 7.0 2.0 4.0 2.0 1.0 5.0 3.0 1.0 9.0 7.0 1.0 9.0 0.0 9.0 0.0 10.0 9.0 10.0 5.0 4.0 0.0 7.0 0.0 5.0 4.0 1.0 1.0 3.0 9.0 2.0 10.0 1.0 3.0 10.0 6.0 2.0 6.0 6.0 5.0 0.0 7.0 1.0 9.0 0.0 8.0 8.0 9.0 0.0 -352.0 8.0 1.0 5.0 7.0 3.0 0.0 8.0 6.0 2.0 7.0 7.0 1.0 3.0 0.0 5.0 2.0 1.0 1.0 0.0 2.0 3.0 5.0 
6.0 10.0 6.0 2.0 7.0 2.0 0.0 5.0 9.0 7.0 7.0 4.0 0.0 5.0 4.0 3.0 10.0 6.0 7.0 8.0 0.0 8.0 10.0 5.0 1.0 6.0 8.0 8.0 6.0 7.0 6.0 0.0 8.0 0.0 3.0 8.0 8.0 5.0 1.0 8.0 3.0 0.0 8.0 5.0 2.0 5.0 1.0 1.0 3.0 2.0 9.0 6.0 1.0 5.0 8.0 3.0 6.0 7.0 8.0 -394.0 7.0 1.0 10.0 0.0 1.0 1.0 8.0 7.0 0.0 1.0 10.0 8.0 5.0 2.0 1.0 3.0 5.0 7.0 6.0 9.0 5.0 
8.0 2.0 2.0 8.0 2.0 9.0 2.0 9.0 2.0 6.0 7.0 5.0 3.0 3.0 1.0 1.0 0.0 0.0 10.0 4.0 4.0 2.0 6.0 0.0 7.0 6.0 2.0 8.0 8.0 4.0 3.0 9.0 0.0 0.0 5.0 10.0 9.0 0.0 10.0 5.0 6.0 1.0 3.0 2.0 0.0 5.0 9.0 6.0 4.0 9.0 8.0 0.0 1.0 2.0 2.0 3.0 2.0 10.0 1.0 7.0 -340.0 1.0 6.0 7.0 1.0 3.0 1.0 0.0 1.0 10.0 4.0 9.0 4.0 7.0 8.0 3.0 2.0 3.0 4.0 0.0 3.0 
3.0 3.0 3.0 7.0 3.0 2.0 7.0 6.0 9.0 0.0 9.0 2.0 4.0 4.0 8.0 0.0 3.0 8.0 1.0 9.0 5.0 10.0 2.0 7.0 10.0 10.0 9.0 0.0 0.0 3.0 3.0 1.0 2.0 8.0 2.0 7.0 3.0 2.0 5.0 9.0 1.0 7.0 1.0 7.0 2.0 0.0 10.0 8.0 4.0 6.0 3.0 3.0 9.0 6.0 8.0 7.0 0.0 9.0 5.0 1.0 1.0 -400.0 4.0 1.0 8.0 8.0 7.0 10.0 5.0 7.0 10.0 3.0 7.0 4.0 8.0 8.0 3.0 2.0 4.0 6.0 8.0 
3.0 3.0 7.0 10.0 2.0 0.0 10.0 8.0 7.0 3.0 8.0 6.0 1.0 4.0 5.0 7.0 5.0 8.0 9.0 2.0 9.0 4.0 9.0 5.0 5.0 9.0 2.0 3.0 8.0 9.0 10.0 7.0 0.0 5.0 4.0 8.0 8.0 2.0 4.0 8.0 10.0 6.0 10.0 9.0 9.0 3.0 10.0 7.0 8.0 9.0 4.0 8.0 0.0 5.0 7.0 10.0 5.0 7.0 7.0 10.0 6.0 4.0 -475.0 10.0 10.0 5.0 8.0 8.0 4.0 5.0 2.0 2.0 5.0 5.0 5.0 2.0 8.0 0.0 8.0 2.0 5.0 
9.0 5.0 8.0 9.0 3.0 4.0 3.0 5.0 7.0 4.0 6.0 9.0 4.0 7.0 6.0 3.0 10.0 3.0 6.0 5.0 3.0 2.0 9.0 0.0 0.0 7.0 7.0 0.0 1.0 9.0 8.0 4.0 5.0 0.0 1.0 1.0 0.0 8.0 2.0 1.0 1.0 10.0 6.0 10.0 7.0 3.0 7.0 3.0 1.0 5.0 10.0 2.0 5.0 2.0 3.0 6.0 3.0 8.0 3.0 0.0 7.0 1.0 10.0 -381.0 9.0 1.0 0.0 1.0 3.0 8.0 9.0 9.0 2.0 4.0 4.0 10.0 10.0 0.0 1.0 9.0 4.0 
0.0 3.0 3.0 0.0 3.0 7.0 8.0 2.0 2.0 8.0 4.0 2.0 8.0 10.0 7.0 1.0 6.0 6.0 0.0 9.0 4.0 2.0 0.0 8.0 8.0 9.0 9.0 4.0 6.0 0.0 10.0 7.0 5.0 3.0 2.0 5.0 7.0 3.0 10.0 10.0 8.0 0.0 7.0 0.0 7.0 2.0 5.0 7.0 5.0 5.0 3.0 2.0 6.0 0.0 6.0 4.0 8.0 10.0 0.0 1.0 1.0 8.0 10.0 9.0 -404.0 7.0 9.0 5.0 4.0 8.0 9.0 6.0 0.0 4.0 3.0 2.0 6.0 8.0 4.0 4.0 10.0 
0.0 10.0 4.0 7.0 3.0 3.0 1.0 4.0 4.0 5.0 6.0 5.0 5.0 4.0 6.0 1.0 3.0 10.0 8.0 8.0 6.0 6.0 9.0 8.0 3.0 0.0 9.0 0.0 10.0 1.0 3.0 7.0 6.0 5.0 10.0 9.0 10.0 1.0 5.0 10.0 10.0 9.0 7.0 2.0 3.0 10.0 5.0 5.0 6.0 0.0 10.0 3.0 2.0 9.0 4.0 1.0 4.0 6.0 8.0 1.0 3.0 8.0 5.0 1.0 7.0 -403.0 3.0 1.0 4.0 1.0 6.0 6.0 8.0 10.0 8.0 0.0 0.0 8.0 3.0 1.0 0.0 
6.0 1.0 1.0 6.0 0.0 10.0 10.0 5.0 0.0 8.0 7.0 8.0 0.0 0.0 5.0 5.0 9.0 5.0 6.0 7.0 8.0 7.0 0.0 5.0 6.0 8.0 0.0 4.0 6.0 7.0 7.0 1.0 0.0 8.0 0.0 4.0 5.0 2.0 0.0 10.0 3.0 9.0 1.0 10.0 8.0 10.0 1.0 1.0 7.0 10.0 5.0 9.0 10.0 9.0 10.0 6.0 5.0 5.0 6.0 8.0 1.0 7.0 8.0 0.0 9.0 3.0 -399.0 8.0 1.0 4.0 7.0 1.0 9.0 0.0 3.0 0.0 0.0 1.0 2.0 9.0 6.0 
6.0 2.0 7.0 8.0 5.0 9.0 5.0 9.0 10.0 4.0 5.0 0.0 0.0 10.0 1.0 9.0 2.0 6.0 6.0 9.0 4.0 3.0 4.0 6.0 3.0 6.0 6.0 4.0 5.0 4.0 10.0 3.0 0.0 4.0 10.0 3.0 2.0 8.0 6.0 6.0 6.0 9.0 4.0 3.0 5.0 7.0 4.0 4.0 0.0 3.0 5.0 10.0 1.0 4.0 5.0 9.0 4.0 4.0 2.0 7.0 0.0 10.0 8.0 1.0 5.0 1.0 8.0 -402.0 10.0 5.0 2.0 0.0 7.0 9.0 7.0 9.0 4.0 1.0 3.0 0.0 6.0 
10.0 8.0 4.0 4.0 10.0 1.0 0.0 5.0 2.0 1.0 9.0 3.0 6.0 9.0 0.0 7.0 6.0 10.0 4.0 9.0 0.0 1.0 7.0 4.0 9.0 0.0 4.0 1.0 0.0 9.0 8.0 0.0 8.0 9.0 4.0 3.0 5.0 3.0 10.0 8.0 10.0 9.0 1.0 6.0 0.0 8.0 9.0 7.0 5.0 6.0 5.0 5.0 8.0 9.0 1.0 4.0 3.0 6.0 7.0 0.0 1.0 5.0 4.0 3.0 4.0 4.0 1.0 10.0 -411.0 8.0 6.0 4.0 3.0 10.0 7.0 6.0 9.0 1.0 9.0 0.0 6.0 
1.0 3.0 4.0 7.0 5.0 6.0 0.0 1.0 6.0 8.0 7.0 4.0 5.0 7.0 10.0 0.0 3.0 9.0 10.0 5.0 5.0 2.0 2.0 0.0 1.0 4.0 10.0 4.0 8.0 2.0 10.0 9.0 9.0 3.0 2.0 10.0 0.0 9.0 9.0 3.0 1.0 1.0 4.0 3.0 10.0 10.0 5.0 9.0 8.0 2.0 3.0 2.0 10.0 7.0 2.0 5.0 4.0 7.0 7.0 1.0 10.0 7.0 5.0 8.0 8.0 1.0 4.0 5.0 8.0 -416.0 10.0 3.0 6.0 9.0 4.0 1.0 4.0 1.0 0.0 9.0 9.0 
7.0 7.0 8.0 4.0 1.0 7.0 0.0 0.0 2.0 4.0 3.0 9.0 10.0 0.0 10.0 0.0 10.0 8.0 6.0 3.0 4.0 9.0 6.0 7.0 1.0 10.0 2.0 2.0 4.0 4.0 6.0 4.0 4.0 7.0 6.0 4.0 10.0 2.0 0.0 2.0 2.0 2.0 2.0 0.0 1.0 8.0 4.0 10.0 4.0 4.0 0.0 10.0 8.0 2.0 8.0 3.0 4.0 3.0 1.0 10.0 4.0 10.0 2.0 9.0 9.0 6.0 7.0 2.0 6.0 10.0 -380.0 0.0 5.0 1.0 5.0 3.0 0.0 7.0 7.0 7.0 1.0 
7.0 7.0 8.0 2.0 10.0 1.0 8.0 9.0 3.0 3.0 10.0 6.0 9.0 3.0 2.0 5.0 2.0 4.0 1.0 10.0 5.0 1.0 2.0 1.0 7.0 0.0 10.0 6.0 1.0 3.0 0.0 5.0 7.0 9.0 0.0 10.0 8.0 7.0 0.0 5.0 4.0 4.0 10.0 10.0 7.0 4.0 9.0 0.0 5.0 5.0 2.0 6.0 0.0 10.0 8.0 9.0 10.0 7.0 3.0 8.0 9.0 3.0 2.0 9.0 6.0 6.0 1.0 0.0 4.0 3.0 0.0 -398.0 6.0 8.0 2.0 10.0 3.0 0.0 3.0 5.0 0.0 
5.0 7.0 6.0 9.0 5.0 8.0 4.0 2.0 5.0 5.0 6.0 7.0 8.0 8.0 9.0 8.0 2.0 7.0 9.0 0.0 6.0 5.0 10.0 5.0 10.0 7.0 7.0 7.0 10.0 1.0 1.0 7.0 5.0 7.0 8.0 7.0 5.0 3.0 5.0 7.0 9.0 4.0 4.0 0.0 3.0 9.0 3.0 1.0 1.0 6.0 4.0 1.0 10.0 5.0 3.0 1.0 5.0 0.0 0.0 5.0 4.0 7.0 5.0 2.0 0.0 8.0 9.0 7.0 3.0 6.0 5.0 6.0 -405.0 1.0 1.0 5.0 4.0 8.0 1.0 0.0 6.0 
8.0 1.0 7.0 5.0 9.0 3.0 0.0 5.0 8.0 1.0 4.0 7.0 1.0 5.0 8.0 0.0 1.0 7.0 4.0 7.0 3.0 0.0 3.0 0.0 8.0 1.0 10.0 1.0 6.0 4.0 1.0 10.0 0.0 6.0 9.0 10.0 3.0 1.0 5.0 4.0 3.0 9.0 9.0 8.0 4.0 1.0 5.0 5.0 8.0 8.0 4.0 6.0 7.0 3.0 9.0 3.0 9.0 9.0 5.0 2.0 7.0 4.0 5.0 4.0 4.0 10.0 0.0 9.0 10.0 9.0 1.0 8.0 1.0 -386.0 1.0 0.0 1.0 8.0 1.0 2.0 8.0 
5.0 6.0 2.0 3.0 2.0 4.0 2.0 5.0 1.0 2.0 1.0 0.0 3.0 9.0 6.0 0.0 2.0 3.0 5.0 9.0 0.0 10.0 8.0 6.0 7.0 2.0 0.0 1.0 3.0 0.0 9.0 10.0 4.0 9.0 8.0 0.0 10.0 9.0 9.0 5.0 6.0 6.0 8.0 8.0 5.0 4.0 10.0 3.0 0.0 4.0 3.0 6.0 7.0 7.0 6.0 3.0 0.0 5.0 2.0 1.0 8.0 8.0 5.0 4.0 3.0 8.0 3.0 7.0 7.0 4.0 5.0 2.0 1.0 1.0 -370.0 0.0 1.0 8.0 2.0 10.0 9.0 
9.0 0.0 6.0 5.0 3.0 4.0 9.0 10.0 5.0 3.0 4.0 8.0 8.0 5.0 1.0 7.0 5.0 10.0 9.0 6.0 3.0 0.0 10.0 0.0 0.0 8.0 0.0 1.0 0.0 9.0 7.0 3.0 5.0 3.0 8.0 6.0 9.0 4.0 10.0 7.0 10.0 1.0 2.0 9.0 2.0 0.0 5.0 1.0 0.0 5.0 8.0 0.0 9.0 9.0 2.0 4.0 1.0 0.0 1.0 3.0 3.0 8.0 2.0 10.0 2.0 0.0 0.0 9.0 6.0 1.0 3.0 10.0 5.0 0.0 0.0 -360.0 6.0 6.0 2.0 1.0 4.0 
5.0 0.0 7.0 8.0 1.0 1.0 7.0 2.0 7.0 10.0 7.0 5.0 2.0 3.0 3.0 3.0 0.0 1.0 2.0 8.0 3.0 9.0 2.0 2.0 2.0 4.0 6.0 6.0 5.0 10.0 7.0 1.0 9.0 0.0 0.0 5.0 5.0 3.0 8.0 8.0 2.0 10.0 3.0 3.0 8.0 2.0 7.0 3.0 6.0 4.0 3.0 2.0 3.0 8.0 8.0 1.0 4.0 8.0 1.0 5.0 2.0 3.0 8.0 10.0 6.0 0.0 0.0 4.0 9.0 4.0 0.0 3.0 4.0 1.0 1.0 6.0 -356.0 5.0 3.0 9.0 10.0 
1.0 0.0 2.0 9.0 3.0 6.0 5.0 9.0 0.0 1.0 9.0 10.0 0.0 7.0 0.0 4.0 3.0 10.0 9.0 3.0 1.0 2.0 5.0 1.0 8.0 4.0 9.0 3.0 0.0 2.0 5.0 0.0 5.0 4.0 1.0 3.0 9.0 4.0 10.0 8.0 7.0 3.0 0.0 1.0 1.0 3.0 0.0 9.0 7.0 1.0 10.0 9.0 9.0 0.0 5.0 6.0 5.0 8.0 0.0 7.0 3.0 2.0 0.0 0.0 8.0 8.0 1.0 1.0 1.0 1.0 7.0 0.0 8.0 8.0 8.0 6.0 5.0 -358.0 7.0 10.0 8.0 
9.0 0.0 7.0 7.0 2.0 8.0 1.0 4.0 1.0 3.0 6.0 8.0 8.0 3.0 2.0 10.0 3.0 6.0 0.0 5.0 6.0 1.0 6.0 0.0 10.0 10.0 4.0 10.0 10.0 2.0 6.0 10.0 10.0 8.0 3.0 1.0 0.0 9.0 4.0 10.0 2.0 0.0 3.0 7.0 5.0 2.0 6.0 3.0 2.0 5.0 0.0 7.0 9.0 1.0 0.0 5.0 7.0 8.0 2.0 6.0 4.0 4.0 8.0 1.0 4.0 3.0 2.0 3.0 9.0 0.0 7.0 3.0 1.0 1.0 2.0 2.0 3.0 7.0 -365.0 6.0 2.0 
1.0 0.0 7.0 2.0 1.0 3.0 6.0 4.0 2.0 4.0 4.0 9.0 9.0 3.0 0.0 10.0 10.0 5.0 10.0 7.0 3.0 8.0 4.0 2.0 8.0 8.0 8.0 6.0 1.0 5.0 3.0 1.0 8.0 10.0 9.0 7.0 4.0 4.0 9.0 0.0 6.0 4.0 6.0 10.0 3.0 1.0 2.0 5.0 3.0 4.0 9.0 7.0 8.0 2.0 8.0 8.0 10.0 2.0 3.0 9.0 0.0 6.0 2.0 9.0 4.0 1.0 9.0 0.0 0.0 9.0 7.0 5.0 0.0 2.0 10.0 1.0 9.0 10.0 6.0 -408.0 3.0 
6.0 0.0 7.0 7.0 3.0 4.0 7.0 2.0 0.0 2.0 10.0 5.0 5.0 2.0 2.0 6.0 9.0 8.0 8.0 7.0 10.0 7.0 5.0 3.0 6.0 0.0 9.0 1.0 10.0 3.0 1.0 5.0 5.0 1.0 8.0 3.0 1.0 6.0 9.0 2.0 7.0 8.0 0.0 6.0 0.0 10.0 5.0 4.0 9.0 2.0 0.0 0.0 1.0 1.0 3.0 6.0 1.0 9.0 5.0 5.0 3.0 8.0 5.0 4.0 10.0 0.0 6.0 6.0 6.0 9.0 1.0 0.0 6.0 8.0 9.0 4.0 10.0 8.0 2.0 3.0 -385.0 

